30 5 2 200
206
210
211
216
204
0
1
0
1
0
1
0
1
1
0
1
0
1
1
0
1
0
1
1
1
1
1
1
1
1
1
0
1
1
1
0
1
1
1
0
0
0
1
0
0
0
0
1
0
1
1
0
0
0
0
0
0
0
1
1
0
0
0
0
0
1
0
1
1
1
1
0
1
0
1
0
0
1
1
1
1
0
1
1
1
1
1
0
0
1
0
0
0
1
0
1
1
1
0
0
1
1
0
1
1
1
1
0
0
0
0
1
1
1
0
0
0
1
1
1
0
0
0
0
1
1
1
1
1
0
0
0
0
1
1
1
1
0
0
0
0
0
1
0
1
0
0
0
1
1
0
1
1
0
0
0
0
0
0
0
0
0
1
1
0
1
0
1
0
1
1
0
0
0
0
0
1
1
1
0
1
1
0
1
1
0
1
0
1
0
0
1
1
0
1
1
1
1
1
1
0
1
0
0
1
1
1
0
0
0
1
0
0
0
1
0
1
1
1
0
1
0
0
1
1
0
1
1
0
0
1
0
0
1
0
1
0
1
1
1
0
0
0
0
0
1
0
1
0
1
1
0
1
1
1
0
1
0
1
0
0
0
0
1
0
0
1
0
1
1
0
0
1
1
0
1
0
0
0
0
0
1
0
0
0
1
0
0
1
0
0
0
1
0
0
0
1
0
1
0
0
1
1
0
0
0
1
0
0
1
1
0
0
0
0
0
0
0
1
0
0
0
0
0
0
0
0
0
0
0
1
0
1
1
1
1
1
0
1
1
1
1
0
0
1
0
0
0
1
1
0
1
0
0
0
0
1
0
0
1
0
1
0
1
0
0
1
0
0
1
0
0
1
1
1
1
0
1
0
1
0
1
1
1
0
1
1
0
1
1
1
1
0
0
0
1
1
1
1
0
0
1
0
1
0
1
0
1
1
1
0
0
0
0
0
1
1
0
0
0
0
1
1
0
0
1
1
0
1
0
0
1
1
1
0
0
0
0
1
1
0
1
0
1
1
0
0
0
1
1
0
1
1
1
0
1
0
1
0
0
1
0
1
1
1
1
1
1
1
0
0
0
1
0
0
0
0
1
0
0
1
0
1
0
1
1
0
0
1
1
0
0
0
1
0
0
0
1
0
0
0
0
1
1
1
0
1
1
1
0
0
1
0
0
1
0
1
0
0
0
0
1
1
1
1
1
1
1
0
0
1
1
1
1
0
1
1
1
0
0
1
0
0
1
1
0
1
1
1
0
1
0
1
1
1
0
0
0
0
0
1
1
1
1
1
1
0
0
0
1
0
1
0
0
1
0
0
1
1
1
1
1
0
1
0
0
1
0
1
1
0
1
0
1
0
0
0
0
0
0
0
1
1
1
1
1
0
0
0
0
0
1
1
0
0
0
0
1
0
1
1
0
1
0
0
1
1
0
0
0
1
1
1
1
1
0
1
1
1
0
1
0
1
0
0
1
0
0
1
1
0
1
0
1
0
0
1
0
1
1
0
0
0
0
1
0
0
0
1
0
0
0
0
1
1
1
0
1
0
1
1
0
0
1
0
0
0
0
1
1
1
1
0
0
0
0
1
0
1
1
0
0
0
0
0
0
0
1
1
0
0
1
1
1
1
0
0
1
1
1
0
0
0
0
0
1
0
0
1
1
0
0
1
1
1
0
0
1
0
1
1
1
0
1
0
1
1
1
0
1
1
0
0
0
0
0
1
0
0
1
1
1
0
0
0
1
0
1
0
1
0
1
0
0
0
1
0
1
1
0
1
0
0
1
1
0
0
1
1
1
0
1
1
0
0
1
0
0
0
1
0
0
0
0
1
1
0
0
1
1
1
1
1
0
1
0
1
0
1
0
0
1
1
1
0
0
0
1
1
1
1
1
0
0
1
0
1
0
0
1
1
0
1
0
1
0
1
1
0
0
0
0
0
0
1
0
1
1
1
0
0
1
1
0
1
0
1
0
0
1
1
1
1
0
1
0
1
1
1
1
0
1
0
0
0
0
0
1
1
0
1
0
1
1
1
0
1
0
0
0
1
1
1
0
1
0
1
0
0
1
1
0
1
0
1
1
0
0
0
0
0
1
0
0
0
0
0
0
1
1
1
1
1
1
1
1
1
1
1
1
0
0
0
1
1
0
1
0
1
1
1
1
0
1
1
1
0
1
0
0
0
1
1
1
0
0
0
0
0
1
1
0
1
0
0
1
0
0
1
1
1
0
0
0
1
0
0
0
0
1
1
1
1
1
0
0
1
1
1
1
0
0
1
0
0
1
1
1
0
0
0
0
0
1
0
1
1
1
1
0
0
1
1
1
0
0
0
1
1
0
1
1
1
0
1
1
1
0
0
1
1
1
0
1
0
0
0
1
1
0
0
0
0
0
0
0
0
0
0
1
1
1
0
0
1
1
1
0
0
0
1
0
0
1
0
1
0
1
0
0
0
0
0
1
1
0
0
0
1
1
1
0
0
1
1
1
0
1
1
0
0
0
0
1
0
0
0
0
1
1
0
0
1
1
0
1
1
0
1
0
0
0
0
0
1
1
0
0
1
0
1
1
0
1
1
0
1
0
0
0
1
1
1
0
0
1
0
1
0
1
1
0
0
0
1
0
1
1
0
0
0
0
1
0
1
0
1
1
0
1
1
1
1
0
0
1
1
1
1
1
1
0
1
0
1
1
0
1
0
0
0
0
0
1
1
0
0
0
0
1
1
1
1
1
0
1
1
0
1
0
1
0
1
0
1
0
0
0
1
1
1
1
0
1
0
0
0
1
1
0
0
1
1
0
0
1
1
1
0
1
1
0
1
1
0
1
1
1
0
1
0
0
1
1
1
1
0
1
0
1
1
0
0
0
1
1
0
0
1
1
0
1
1
1
0
1
0
1
1
0
1
0
1
0
1
1
0
1
1
1
1
0
0
1
0
0
1
1
0
1
0
1
1
0
0
0
0
1
0
1
1
0
0
1
1
0
0
0
1
1
1
0
0
0
1
0
1
1
1
0
0
1
0
0
0
1
1
1
1
1
1
1
1
1
1
1
0
0
1
1
1
0
0
1
0
1
1
1
1
0
1
1
1
1
1
0
0
0
1
0
0
1
1
1
0
0
1
0
0
1
0
0
1
1
1
1
1
0
1
0
1
0
0
1
1
1
1
0
1
1
0
0
1
0
1
1
1
0
1
0
0
0
0
0
0
1
0
1
1
0
1
0
1
1
0
1
1
1
1
1
1
1
0
1
1
1
0
0
0
0
0
0
1
0
1
0
0
1
0
0
0
1
0
1
0
1
0
0
0
1
1
0
0
1
0
0
1
1
0
0
0
1
1
1
0
1
1
1
1
1
1
0
0
1
1
0
1
1
1
1
0
1
0
1
1
0
1
0
0
1
0
1
0
1
1
0
0
0
1
0
1
0
0
1
0
0
0
1
1
1
1
0
0
1
1
1
1
0
0
0
0
0
0
1
1
0
0
1
0
1
1
1
0
1
1
0
1
1
0
1
1
1
0
0
0
0
1
0
0
1
1
1
1
0
0
0
1
0
0
0
0
0
1
0
0
1
1
1
0
1
1
1
1
0
0
1
1
1
0
1
1
1
0
1
1
1
1
0
1
1
1
0
0
0
1
1
0
1
0
0
1
1
0
1
1
1
1
1
1
1
0
0
0
0
0
1
0
0
1
0
1
1
0
0
0
0
1
0
0
1
0
1
1
1
1
0
0
0
0
1
0
1
1
0
0
1
1
1
1
0
0
1
0
1
0
0
0
1
1
0
1
1
0
1
1
0
0
1
1
1
1
0
1
1
0
0
1
1
1
0
0
0
1
0
1
1
1
1
1
1
1
0
0
0
0
0
1
1
1
1
1
1
0
1
0
0
0
1
0
1
0
1
1
1
1
1
1
0
1
0
1
1
0
0
1
1
1
1
1
0
0
0
0
0
0
0
0
0
1
0
0
1
0
1
0
1
0
0
1
1
0
1
1
1
0
0
0
1
1
0
0
1
0
1
0
1
0
1
1
1
1
0
0
1
1
1
0
0
0
0
1
1
0
0
1
0
0
1
1
0
0
1
0
1
0
1
0
1
1
1
0
1
0
1
1
1
1
1
1
1
1
1
1
1
1
0
1
1
0
0
0
1
0
0
1
0
0
0
0
0
1
1
0
1
1
0
1
1
1
0
0
0
0
1
0
0
1
1
1
1
1
0
1
1
0
1
1
0
1
1
0
0
1
0
1
1
0
1
1
0
0
1
1
0
0
1
1
1
1
1
0
0
0
0
0
0
0
0
1
0
0
1
1
1
0
1
0
1
1
1
1
0
1
0
0
0
0
0
1
0
1
0
0
1
1
1
0
1
0
0
0
0
1
1
1
0
0
0
1
0
0
1
1
0
1
1
0
0
0
1
0
1
1
1
0
1
1
1
0
1
1
0
1
0
1
1
1
0
0
1
0
0
1
1
0
1
0
0
0
0
1
1
0
1
1
0
1
0
0
1
1
0
0
1
0
1
0
0
0
1
0
1
1
0
0
0
1
1
1
1
1
0
0
0
0
1
1
1
0
0
1
0
0
0
0
0
1
0
1
0
0
0
0
1
1
0
1
1
1
1
0
0
1
0
0
1
1
1
1
1
0
1
1
0
0
0
0
1
1
0
1
1
1
1
1
0
1
0
1
1
1
1
0
1
0
0
0
1
1
0
1
1
1
1
1
1
0
0
0
1
0
0
1
0
0
0
0
1
0
0
0
1
1
0
0
0
0
1
1
0
0
0
0
0
0
1
0
1
1
0
0
0
1
0
0
0
0
1
1
1
0
1
0
0
0
1
0
1
0
0
0
0
0
1
0
0
0
0
1
0
0
1
1
0
1
0
1
0
0
1
0
0
1
0
1
0
0
1
0
1
1
1
0
1
1
0
0
1
1
1
0
0
0
0
1
0
1
0
1
1
0
1
0
1
1
1
1
1
0
0
1
1
1
1
1
0
0
0
0
0
0
0
1
0
1
1
0
0
1
1
1
0
0
1
0
0
0
0
1
0
0
1
1
0
0
1
1
1
0
1
1
1
1
0
0
1
0
0
0
1
1
1
1
0
0
1
0
0
0
0
1
1
1
1
0
0
1
1
1
1
1
0
1
0
1
0
1
1
1
0
1
1
1
0
0
0
1
0
1
1
1
0
1
1
1
0
1
0
1
0
1
0
0
1
1
0
1
1
1
0
0
1
1
0
0
1
1
0
0
0
0
0
0
0
0
0
0
0
0
0
1
0
1
0
1
1
0
1
1
1
1
1
0
1
1
0
1
1
0
1
1
1
1
1
0
1
0
0
0
0
1
1
0
0
0
0
0
0
1
0
1
0
1
0
1
0
1
1
1
0
0
1
1
1
1
0
0
0
0
1
0
1
1
0
0
0
0
1
0
0
1
1
1
1
1
1
1
0
0
0
1
0
1
1
0
1
1
0
0
0
0
0
1
1
0
0
1
1
1
0
1
0
0
0
0
1
1
0
1
1
0
1
1
1
1
1
0
0
1
1
0
1
1
0
1
0
1
1
0
1
1
1
0
1
1
0
1
1
1
1
0
1
0
0
0
0
1
0
0
0
0
1
1
0
1
0
1
0
0
0
0
1
0
0
1
1
1
1
0
0
1
1
0
0
1
1
1
1
1
0
1
1
0
0
1
0
0
0
0
0
1
1
0
0
1
1
1
0
1
0
1
1
1
1
0
1
0
0
0
1
0
1
1
1
0
0
0
1
1
0
0
1
0
1
0
0
0
0
1
0
0
1
0
1
1
0
0
1
0
1
1
1
1
1
0
1
0
1
1
0
1
0
1
0
0
0
0
1
1
1
1
1
1
1
1
1
1
1
1
0
0
0
0
0
0
1
1
1
1
1
1
0
1
0
1
1
0
1
1
1
0
0
0
0
0
0
0
0
1
0
0
0
0
1
0
1
0
0
1
1
0
1
1
0
0
1
0
0
1
1
0
0
0
0
0
0
0
1
0
0
1
1
0
0
0
1
0
1
0
1
0
0
1
1
1
1
1
0
1
0
0
0
0
1
1
1
1
1
1
0
0
0
1
1
1
0
1
1
1
0
1
1
0
1
1
0
0
0
1
1
1
1
1
1
0
1
0
0
1
1
0
0
1
1
0
1
0
0
1
1
0
1
0
0
0
0
1
1
1
0
0
0
0
1
0
0
0
1
1
0
1
1
0
1
0
1
1
1
1
0
1
1
0
1
0
1
1
0
1
1
0
1
1
1
1
0
0
0
0
0
1
1
0
1
0
1
0
1
1
1
1
1
1
0
1
1
1
1
1
1
1
1
0
1
0
1
0
0
1
0
1
1
1
0
0
1
1
0
0
0
0
1
1
0
0
1
0
1
1
1
0
1
0
0
0
1
1
1
0
0
0
0
1
0
0
1
0
0
0
0
1
1
1
1
1
0
1
1
1
0
0
0
1
0
0
0
1
0
1
1
0
0
0
0
1
1
1
0
0
0
0
1
0
1
0
1
0
1
0
1
0
0
1
0
0
0
1
1
1
0
1
0
1
0
0
1
0
0
0
0
0
0
0
1
0
1
0
0
1
0
0
0
1
0
0
0
0
0
1
1
0
0
0
1
0
1
0
0
0
1
0
1
0
0
1
0
1
0
1
1
1
0
1
0
1
1
0
0
1
1
1
1
1
1
0
1
0
1
1
0
0
0
1
0
0
0
1
1
1
0
1
1
0
0
1
0
1
1
1
0
1
1
0
0
0
0
0
1
0
1
0
1
1
1
0
1
0
0
1
0
0
1
0
0
0
1
1
1
0
1
0
1
0
1
1
0
1
1
1
1
1
0
0
0
1
0
0
1
1
1
0
0
1
0
1
1
1
0
1
1
1
0
1
0
1
1
0
1
0
0
1
0
0
0
0
1
0
1
1
0
0
1
1
1
1
1
0
1
0
1
1
0
1
0
0
1
1
1
1
1
0
0
0
1
1
1
1
1
0
1
0
0
0
0
1
0
0
1
0
0
1
1
1
1
0
1
0
1
1
0
0
0
1
0
0
1
1
0
1
0
0
1
0
1
0
1
1
0
0
1
0
1
1
0
0
0
1
1
1
1
0
1
0
1
1
1
1
0
0
1
1
1
0
0
0
0
1
1
1
1
1
1
1
1
1
0
0
1
0
0
0
0
1
1
1
0
0
0
0
1
1
1
1
1
1
1
0
0
1
1
1
0
1
1
0
0
1
1
1
0
0
0
1
0
0
0
0
0
1
0
1
1
1
0
0
1
1
1
0
1
0
0
0
1
1
0
0
1
0
0
0
1
0
0
0
1
0
0
1
1
0
1
1
0
0
1
1
0
0
0
1
1
0
1
1
0
0
1
1
1
0
0
0
1
1
0
1
0
0
0
0
0
0
1
1
0
0
1
1
0
1
0
0
1
1
1
0
0
1
1
0
0
1
1
0
0
0
1
0
1
1
1
0
0
0
0
0
0
1
0
1
1
1
1
1
1
0
1
0
1
1
0
0
0
0
1
0
0
0
0
1
0
0
1
1
0
1
1
0
0
0
0
0
0
0
1
1
0
1
0
0
0
0
1
1
0
1
0
1
0
1
0
1
0
0
1
1
1
1
1
0
0
1
1
0
1
0
0
1
1
1
0
1
0
1
1
1
0
0
1
0
1
0
1
1
0
1
0
0
1
1
0
0
0
0
1
1
0
0
1
0
1
0
0
0
0
0
0
0
0
1
1
0
0
1
0
0
1
1
1
0
1
1
0
1
0
1
0
1
1
0
1
1
0
1
0
0
0
0
0
1
0
0
1
0
1
0
0
0
1
0
0
0
1
1
1
0
0
1
0
0
1
0
0
1
0
0
0
0
1
0
0
1
0
0
0
1
1
0
1
0
1
0
0
1
1
0
1
1
1
0
0
0
1
0
1
0
1
1
0
1
1
1
1
1
1
1
1
0
1
0
0
0
1
0
1
0
0
1
1
1
1
0
1
1
0
1
0
0
0
1
1
1
1
0
1
1
0
0
1
0
1
1
1
1
0
0
0
0
0
1
1
1
1
1
1
0
0
0
0
1
0
0
0
1
1
1
1
1
1
0
0
1
1
1
0
0
0
1
0
0
0
0
1
1
1
0
1
1
1
0
1
1
1
1
0
0
1
1
0
1
1
0
0
1
0
1
0
0
0
0
0
1
1
1
0
1
1
0
0
0
0
1
1
0
0
0
1
0
0
0
1
0
0
1
0
1
1
1
1
0
1
1
1
1
0
1
0
0
1
1
0
1
0
1
0
0
1
1
0
1
0
1
0
0
0
1
1
1
1
0
1
1
1
1
1
1
1
0
1
1
1
1
0
0
1
1
1
1
1
0
0
1
0
1
0
0
0
1
0
1
0
0
1
1
0
0
0
0
1
1
1
0
0
1
1
0
1
1
0
0
0
1
1
0
0
0
0
1
0
0
1
0
1
1
1
0
0
0
0
0
1
0
1
1
0
0
1
0
1
1
1
1
1
1
0
1
0
0
0
0
0
1
1
1
0
1
0
0
0
1
0
1
0
1
0
0
0
1
1
0
0
1
0
1
0
1
0
0
1
1
0
1
0
1
1
1
1
0
1
0
1
1
1
1
1
1
0
1
0
0
0
0
0
1
0
0
0
0
1
0
1
0
1
0
0
0
1
1
0
0
1
1
0
1
1
1
0
1
0
0
0
1
0
0
1
0
1
1
1
1
1
1
1
1
0
1
1
0
1
1
0
1
0
1
1
0
1
1
0
1
1
0
0
0
0
0
1
0
1
0
1
1
1
0
0
0
1
1
1
1
0
0
1
1
1
1
0
1
0
1
0
0
1
0
1
1
1
0
1
0
0
1
1
1
1
1
1
0
1
1
0
1
0
0
0
1
0
1
1
1
1
1
0
1
1
0
0
0
0
0
0
0
0
1
1
0
0
0
0
1
1
0
1
1
1
1
1
1
1
1
0
0
0
1
0
0
0
1
1
1
1
0
0
1
0
1
0
1
0
1
1
1
1
1
0
1
1
0
1
1
0
0
1
1
0
0
0
0
0
0
1
1
1
1
0
1
1
1
0
0
0
1
0
1
0
1
0
1
0
0
0
0
0
0
0
1
1
0
1
0
0
1
0
0
0
1
0
0
0
1
0
0
1
0
0
0
0
1
0
1
0
0
0
1
0
0
1
0
0
1
0
0
1
1
1
1
1
1
0
1
1
1
0
1
1
0
0
0
1
0
0
0
0
1
0
0
0
0
0
0
0
0
1
1
0
0
0
1
1
1
1
1
1
1
1
0
1
0
1
0
0
0
1
0
1
1
0
0
0
1
0
0
0
1
0
0
1
1
0
0
0
0
1
1
1
0
1
1
0
1
0
0
1
0
1
1
0
1
0
1
1
0
1
0
0
0
0
0
0
0
1
0
0
1
0
0
1
0
1
1
1
1
1
0
0
0
1
0
1
0
1
0
1
0
0
0
0
1
1
1
1
1
1
1
1
0
1
0
1
1
0
1
1
1
1
1
1
0
0
0
1
1
0
0
1
0
0
1
1
1
1
0
1
1
0
0
0
0
0
1
0
0
1
1
0
1
0
1
1
0
1
0
0
0
1
0
1
0
0
1
0
0
0
1
0
0
1
0
1
1
1
1
1
0
1
0
1
1
0
0
0
0
0
1
1
0
0
1
0
0
0
1
1
1
1
0
1
0
0
0
0
0
0
1
1
0
1
0
0
0
0
0
0
1
0
1
1
1
1
0
1
1
1
0
0
1
1
0
1
0
0
0
0
1
0
1
0
0
0
0
1
0
1
0
0
0
0
0
1
0
1
1
0
1
0
0
1
1
1
0
1
0
1
0
0
0
0
0
1
1
1
1
1
1
1
1
0
0
1
1
0
1
1
1
0
1
0
0
1
0
0
1
0
0
0
1
0
1
1
1
0
0
0
0
1
0
1
1
1
0
0
0
0
1
0
1
1
1
1
0
0
0
0
1
1
1
0
1
1
1
0
1
1
0
0
1
0
1
1
0
1
0
1
1
0
0
0
1
1
1
0
1
0
1
1
1
1
0
1
0
0
0
0
0
0
0
0
1
0
1
0
1
0
1
0
1
1
1
1
1
0
0
0
1
0
1
0
0
0
1
1
0
1
0
0
0
0
1
1
1
1
0
0
0
1
1
0
0
0
0
1
1
1
0
0
0
0
0
0
0
1
1
0
1
1
0
1
1
0
0
1
1
0
1
0
0
0
1
1
0
0
0
1
1
0
1
1
0
0
1
1
0
1
1
0
1
0
1
1
1
0
0
1
0
0
0
1
1
1
0
0
1
1
1
0
0
0
0
1
1
1
0
1
1
0
1
1
0
0
0
1
1
0
1
0
0
0
0
0
0
1
0
0
0
1
0
1
0
0
0
1
0
0
1
1
0
0
0
1
1
0
0
0
1
1
1
1
0
0
1
0
1
1
1
1
1
1
1
1
1
0
0
1
0
0
1
0
0
1
1
1
0
1
1
0
0
0
0
1
1
1
1
0
0
0
1
1
1
1
1
0
0
0
1
1
0
0
1
1
0
0
1
0
1
1
0
0
0
1
0
1
0
1
1
1
1
0
0
1
1
1
1
0
1
1
1
0
0
0
0
1
0
1
0
0
1
0
0
0
0
0
1
0
1
1
1
0
1
0
0
1
0
1
1
0
1
0
0
1
0
0
1
0
0
0
1
0
1
1
0
1
1
1
0
1
1
1
0
1
0
0
0
1
0
0
0
0
0
0
0
0
0
0
0
0
0
0
1
1
0
0
1
0
1
0
1
0
1
0
0
0
0
1
0
0
1
0
1
1
0
0
0
0
0
0
0
1
0
1
0
0
0
1
1
1
0
0
0
1
0
0
0
0
0
0
0
0
0
1
0
0
0
0
1
0
0
0
1
1
0
1
1
0
1
1
1
1
0
0
1
1
1
1
0
1
0
1
0
0
1
1
1
1
0
1
0
0
1
1
0
1
0
0
1
0
1
0
1
1
1
0
0
0
1
1
1
0
0
0
0
1
0
1
0
1
0
1
0
1
0
0
0
0
0
1
0
0
0
1
1
1
1
0
0
1
1
1
1
1
0
1
0
0
0
1
1
1
1
1
1
1
0
0
1
0
1
0
0
0
0
0
1
0
1
1
1
1
0
1
0
0
1
0
1
1
1
0
1
1
1
0
0
1
1
1
0
0
1
1
0
1
1
1
1
0
1
1
0
1
0
1
1
0
0
1
0
0
0
0
1
0
0
0
1
1
1
0
1
1
0
0
1
0
1
0
0
0
0
0
1
0
0
0
1
1
0
1
0
1
1
1
1
1
0
0
1
0
1
0
0
1
0
1
0
1
1
0
0
0
0
0
0
1
0
1
0
1
0
1
0
0
0
0
1
1
1
1
0
0
1
1
1
0
1
1
0
1
0
0
0
0
1
1
0
1
1
1
0
1
0
1
1
1
0
0
0
1
1
1
0
1
0
1
1
0
1
0
0
1
0
1
1
1
0
1
0
0
1
0
1
0
1
0
1
0
0
0
0
1
1
0
0
0
1
0
0
0
1
0
1
0
1
0
0
1
1
0
0
0
1
1
0
0
1
0
1
1
0
1
0
1
0
0
0
0
0
0
0
1
0
1
1
0
1
0
1
0
0
1
1
0
1
1
0
0
0
0
0
1
1
0
0
1
0
0
0
0
1
1
1
0
0
0
0
0
1
1
0
0
0
0
1
0
0
0
1
0
1
1
0
1
0
0
0
1
1
1
1
0
1
0
0
0
0
1
1
0
1
1
0
0
1
0
1
1
1
0
1
0
1
0
0
0
0
0
1
0
1
0
0
1
0
1
1
1
1
0
1
1
0
0
1
0
1
1
0
0
1
1
1
1
1
0
0
0
0
0
1
0
0
0
0
0
0
0
0
0
0
1
0
0
0
1
0
0
1
0
0
1
1
0
0
1
1
0
1
1
1
0
0
0
1
0
1
1
0
0
0
1
1
0
1
1
0
1
0
0
1
1
1
1
1
1
0
1
0
1
0
0
1
0
1
0
0
1
1
0
1
0
1
0
1
0
0
0
1
1
0
0
0
1
1
1
1
1
0
0
0
0
1
1
1
1
0
1
0
1
0
0
1
1
0
1
0
0
1
1
1
1
0
1
0
1
1
0
1
1
1
1
0
1
0
0
1
1
1
0
0
1
0
0
0
1
1
0
1
1
0
0
1
1
1
0
1
1
1
0
0
1
1
0
1
0
0
0
1
0
0
0
1
1
0
0
0
1
1
0
1
0
1
1
1
0
0
1
0
1
1
1
0
0
0
0
1
0
0
1
0
0
0
1
0
0
0
1
0
0
0
0
1
1
0
1
1
0
1
0
1
1
0
1
1
1
0
1
1
1
0
0
1
0
1
0
1
0
1
0
0
1
0
0
0
0
0
0
0
0
1
0
1
0
0
1
0
0
0
0
0
0
0
1
1
0
0
0
0
1
1
1
1
0
0
1
0
1
0
0
1
0
1
1
0
0
1
0
0
1
0
1
0
0
0
0
0
1
0
0
0
1
1
0
0
1
0
1
0
1
0
1
1
0
0
0
0
1
1
0
1
0
0
0
0
1
0
1
1
0
0
0
0
1
1
1
0
0
1
1
0
1
0
1
0
0
0
0
0
0
1
0
1
1
1
1
1
0
1
0
1
0
1
0
0
1
0
1
1
1
1
0
0
0
1
1
1
0
0
1
1
0
0
0
0
1
1
0
1
1
1
0
0
0
1
0
0
0
1
1
1
1
0
0
1
1
0
0
0
1
0
0
1
0
1
1
1
1
0
0
0
0
1
1
0
0
1
0
0
1
0
0
0
0
0
1
0
0
1
1
1
0
0
0
1
1
0
1
0
1
0
1
1
1
1
1
0
1
1
0
1
1
1
0
0
0
0
0
0
1
0
1
1
1
1
1
1
0
0
1
1
1
0
1
0
1
0
0
1
0
1
0
1
1
0
1
1
1
0
1
0
0
1
1
1
1
1
0
0
1
0
1
0
1
1
0
1
1
0
0
1
0
0
1
0
1
0
1
1
0
1
0
0
1
0
1
0
0
0
0
1
0
0
1
0
1
1
0
0
0
0
1
0
0
1
0
1
1
0
0
1
0
0
0
0
0
1
0
1
0
0
0
1
0
0
0
0
0
0
1
1
0
1
1
1
0
1
0
1
0
1
1
1
0
0
1
0
0
1
1
1
1
0
1
1
0
1
1
0
1
0
0
1
0
1
0
1
0
0
0
1
0
0
0
0
0
0
1
0
1
1
1
0
0
1
0
0
1
1
1
1
0
0
1
0
0
1
1
1
1
1
0
0
0
1
1
0
1
1
0
1
0
0
1
1
1
0
1
0
0
0
0
0
0
1
0
0
1
1
0
0
1
0
0
1
0
1
0
0
0
0
0
1
0
1
1
1
1
1
0
1
0
1
1
0
1
0
1
0
0
1
1
1
1
0
1
0
0
0
0
0
0
0
0
1
1
1
1
0
1
1
0
1
0
1
0
0
1
0
0
0
0
0
0
0
0
1
1
1
1
0
1
1
0
1
0
1
1
1
1
1
1
0
0
0
0
1
0
1
0
1
1
0
0
0
0
1
1
1
1
0
1
1
0
0
1
1
1
1
1
1
1
0
0
1
1
1
